(set-logic QF_S)
(declare-fun var0 () String)
(declare-fun var1 () Int)
(declare-fun var2 () String)
(declare-fun var3 () Int)
(declare-fun var4 () String)
(declare-fun var5 () String)
(declare-fun var6 () Int)
(declare-fun var7 () Int)
(assert (str.contains (str.substr var0 9 var1) (str.substr (str.at var2 var3) (str.len var4) (str.indexof var5 var0 var6))))
(assert (not (str.prefixof var0 var2)))
(assert (not (>= var7 var3)))
(assert (str.contains (str.at (str.at var4 var1) (str.to.int var4)) (str.at var2 var6)))
(check-sat)